certificates/rado_a21_c14_N183.cnf
c Rad2 upper bound instance: x1 + 21*x2 - x3 = 14, interval [1,183]
p cnf 183 1656
1 8 0
-1 -8 0
1 2 29 0
-1 -2 -29 0
1 3 50 0
-1 -3 -50 0
1 4 71 0
-1 -4 -71 0
1 5 92 0
-1 -5 -92 0
1 6 113 0
-1 -6 -113 0
1 7 134 0
-1 -7 -134 0
1 8 155 0
-1 -8 -155 0
1 9 176 0
-1 -9 -176 0
1 2 9 0
-1 -2 -9 0
2 30 0
-2 -30 0
2 3 51 0
-2 -3 -51 0
2 4 72 0
-2 -4 -72 0
2 5 93 0
-2 -5 -93 0
2 6 114 0
-2 -6 -114 0
2 7 135 0
-2 -7 -135 0
2 8 156 0
-2 -8 -156 0
2 9 177 0
-2 -9 -177 0
1 3 10 0
-1 -3 -10 0
2 3 31 0
-2 -3 -31 0
3 52 0
-3 -52 0
3 4 73 0
-3 -4 -73 0
3 5 94 0
-3 -5 -94 0
3 6 115 0
-3 -6 -115 0
3 7 136 0
-3 -7 -136 0
3 8 157 0
-3 -8 -157 0
3 9 178 0
-3 -9 -178 0
1 4 11 0
-1 -4 -11 0
2 4 32 0
-2 -4 -32 0
3 4 53 0
-3 -4 -53 0
4 74 0
-4 -74 0
4 5 95 0
-4 -5 -95 0
4 6 116 0
-4 -6 -116 0
4 7 137 0
-4 -7 -137 0
4 8 158 0
-4 -8 -158 0
4 9 179 0
-4 -9 -179 0
1 5 12 0
-1 -5 -12 0
2 5 33 0
-2 -5 -33 0
3 5 54 0
-3 -5 -54 0
4 5 75 0
-4 -5 -75 0
5 96 0
-5 -96 0
5 6 117 0
-5 -6 -117 0
5 7 138 0
-5 -7 -138 0
5 8 159 0
-5 -8 -159 0
5 9 180 0
-5 -9 -180 0
1 6 13 0
-1 -6 -13 0
2 6 34 0
-2 -6 -34 0
3 6 55 0
-3 -6 -55 0
4 6 76 0
-4 -6 -76 0
5 6 97 0
-5 -6 -97 0
6 118 0
-6 -118 0
6 7 139 0
-6 -7 -139 0
6 8 160 0
-6 -8 -160 0
6 9 181 0
-6 -9 -181 0
1 7 14 0
-1 -7 -14 0
2 7 35 0
-2 -7 -35 0
3 7 56 0
-3 -7 -56 0
4 7 77 0
-4 -7 -77 0
5 7 98 0
-5 -7 -98 0
6 7 119 0
-6 -7 -119 0
7 140 0
-7 -140 0
7 8 161 0
-7 -8 -161 0
7 9 182 0
-7 -9 -182 0
1 8 15 0
-1 -8 -15 0
2 8 36 0
-2 -8 -36 0
3 8 57 0
-3 -8 -57 0
4 8 78 0
-4 -8 -78 0
5 8 99 0
-5 -8 -99 0
6 8 120 0
-6 -8 -120 0
7 8 141 0
-7 -8 -141 0
8 162 0
-8 -162 0
8 9 183 0
-8 -9 -183 0
1 9 16 0
-1 -9 -16 0
2 9 37 0
-2 -9 -37 0
3 9 58 0
-3 -9 -58 0
4 9 79 0
-4 -9 -79 0
5 9 100 0
-5 -9 -100 0
6 9 121 0
-6 -9 -121 0
7 9 142 0
-7 -9 -142 0
8 9 163 0
-8 -9 -163 0
1 10 17 0
-1 -10 -17 0
2 10 38 0
-2 -10 -38 0
3 10 59 0
-3 -10 -59 0
4 10 80 0
-4 -10 -80 0
5 10 101 0
-5 -10 -101 0
6 10 122 0
-6 -10 -122 0
7 10 143 0
-7 -10 -143 0
8 10 164 0
-8 -10 -164 0
1 11 18 0
-1 -11 -18 0
2 11 39 0
-2 -11 -39 0
3 11 60 0
-3 -11 -60 0
4 11 81 0
-4 -11 -81 0
5 11 102 0
-5 -11 -102 0
6 11 123 0
-6 -11 -123 0
7 11 144 0
-7 -11 -144 0
8 11 165 0
-8 -11 -165 0
1 12 19 0
-1 -12 -19 0
2 12 40 0
-2 -12 -40 0
3 12 61 0
-3 -12 -61 0
4 12 82 0
-4 -12 -82 0
5 12 103 0
-5 -12 -103 0
6 12 124 0
-6 -12 -124 0
7 12 145 0
-7 -12 -145 0
8 12 166 0
-8 -12 -166 0
1 13 20 0
-1 -13 -20 0
2 13 41 0
-2 -13 -41 0
3 13 62 0
-3 -13 -62 0
4 13 83 0
-4 -13 -83 0
5 13 104 0
-5 -13 -104 0
6 13 125 0
-6 -13 -125 0
7 13 146 0
-7 -13 -146 0
8 13 167 0
-8 -13 -167 0
1 14 21 0
-1 -14 -21 0
2 14 42 0
-2 -14 -42 0
3 14 63 0
-3 -14 -63 0
4 14 84 0
-4 -14 -84 0
5 14 105 0
-5 -14 -105 0
6 14 126 0
-6 -14 -126 0
7 14 147 0
-7 -14 -147 0
8 14 168 0
-8 -14 -168 0
1 15 22 0
-1 -15 -22 0
2 15 43 0
-2 -15 -43 0
3 15 64 0
-3 -15 -64 0
4 15 85 0
-4 -15 -85 0
5 15 106 0
-5 -15 -106 0
6 15 127 0
-6 -15 -127 0
7 15 148 0
-7 -15 -148 0
8 15 169 0
-8 -15 -169 0
1 16 23 0
-1 -16 -23 0
2 16 44 0
-2 -16 -44 0
3 16 65 0
-3 -16 -65 0
4 16 86 0
-4 -16 -86 0
5 16 107 0
-5 -16 -107 0
6 16 128 0
-6 -16 -128 0
7 16 149 0
-7 -16 -149 0
8 16 170 0
-8 -16 -170 0
1 17 24 0
-1 -17 -24 0
2 17 45 0
-2 -17 -45 0
3 17 66 0
-3 -17 -66 0
4 17 87 0
-4 -17 -87 0
5 17 108 0
-5 -17 -108 0
6 17 129 0
-6 -17 -129 0
7 17 150 0
-7 -17 -150 0
8 17 171 0
-8 -17 -171 0
1 18 25 0
-1 -18 -25 0
2 18 46 0
-2 -18 -46 0
3 18 67 0
-3 -18 -67 0
4 18 88 0
-4 -18 -88 0
5 18 109 0
-5 -18 -109 0
6 18 130 0
-6 -18 -130 0
7 18 151 0
-7 -18 -151 0
8 18 172 0
-8 -18 -172 0
1 19 26 0
-1 -19 -26 0
2 19 47 0
-2 -19 -47 0
3 19 68 0
-3 -19 -68 0
4 19 89 0
-4 -19 -89 0
5 19 110 0
-5 -19 -110 0
6 19 131 0
-6 -19 -131 0
7 19 152 0
-7 -19 -152 0
8 19 173 0
-8 -19 -173 0
1 20 27 0
-1 -20 -27 0
2 20 48 0
-2 -20 -48 0
3 20 69 0
-3 -20 -69 0
4 20 90 0
-4 -20 -90 0
5 20 111 0
-5 -20 -111 0
6 20 132 0
-6 -20 -132 0
7 20 153 0
-7 -20 -153 0
8 20 174 0
-8 -20 -174 0
1 21 28 0
-1 -21 -28 0
2 21 49 0
-2 -21 -49 0
3 21 70 0
-3 -21 -70 0
4 21 91 0
-4 -21 -91 0
5 21 112 0
-5 -21 -112 0
6 21 133 0
-6 -21 -133 0
7 21 154 0
-7 -21 -154 0
8 21 175 0
-8 -21 -175 0
1 22 29 0
-1 -22 -29 0
2 22 50 0
-2 -22 -50 0
3 22 71 0
-3 -22 -71 0
4 22 92 0
-4 -22 -92 0
5 22 113 0
-5 -22 -113 0
6 22 134 0
-6 -22 -134 0
7 22 155 0
-7 -22 -155 0
8 22 176 0
-8 -22 -176 0
1 23 30 0
-1 -23 -30 0
2 23 51 0
-2 -23 -51 0
3 23 72 0
-3 -23 -72 0
4 23 93 0
-4 -23 -93 0
5 23 114 0
-5 -23 -114 0
6 23 135 0
-6 -23 -135 0
7 23 156 0
-7 -23 -156 0
8 23 177 0
-8 -23 -177 0
1 24 31 0
-1 -24 -31 0
2 24 52 0
-2 -24 -52 0
3 24 73 0
-3 -24 -73 0
4 24 94 0
-4 -24 -94 0
5 24 115 0
-5 -24 -115 0
6 24 136 0
-6 -24 -136 0
7 24 157 0
-7 -24 -157 0
8 24 178 0
-8 -24 -178 0
1 25 32 0
-1 -25 -32 0
2 25 53 0
-2 -25 -53 0
3 25 74 0
-3 -25 -74 0
4 25 95 0
-4 -25 -95 0
5 25 116 0
-5 -25 -116 0
6 25 137 0
-6 -25 -137 0
7 25 158 0
-7 -25 -158 0
8 25 179 0
-8 -25 -179 0
1 26 33 0
-1 -26 -33 0
2 26 54 0
-2 -26 -54 0
3 26 75 0
-3 -26 -75 0
4 26 96 0
-4 -26 -96 0
5 26 117 0
-5 -26 -117 0
6 26 138 0
-6 -26 -138 0
7 26 159 0
-7 -26 -159 0
8 26 180 0
-8 -26 -180 0
1 27 34 0
-1 -27 -34 0
2 27 55 0
-2 -27 -55 0
3 27 76 0
-3 -27 -76 0
4 27 97 0
-4 -27 -97 0
5 27 118 0
-5 -27 -118 0
6 27 139 0
-6 -27 -139 0
7 27 160 0
-7 -27 -160 0
8 27 181 0
-8 -27 -181 0
1 28 35 0
-1 -28 -35 0
2 28 56 0
-2 -28 -56 0
3 28 77 0
-3 -28 -77 0
4 28 98 0
-4 -28 -98 0
5 28 119 0
-5 -28 -119 0
6 28 140 0
-6 -28 -140 0
7 28 161 0
-7 -28 -161 0
8 28 182 0
-8 -28 -182 0
1 29 36 0
-1 -29 -36 0
2 29 57 0
-2 -29 -57 0
3 29 78 0
-3 -29 -78 0
4 29 99 0
-4 -29 -99 0
5 29 120 0
-5 -29 -120 0
6 29 141 0
-6 -29 -141 0
7 29 162 0
-7 -29 -162 0
8 29 183 0
-8 -29 -183 0
1 30 37 0
-1 -30 -37 0
2 30 58 0
-2 -30 -58 0
3 30 79 0
-3 -30 -79 0
4 30 100 0
-4 -30 -100 0
5 30 121 0
-5 -30 -121 0
6 30 142 0
-6 -30 -142 0
7 30 163 0
-7 -30 -163 0
1 31 38 0
-1 -31 -38 0
2 31 59 0
-2 -31 -59 0
3 31 80 0
-3 -31 -80 0
4 31 101 0
-4 -31 -101 0
5 31 122 0
-5 -31 -122 0
6 31 143 0
-6 -31 -143 0
7 31 164 0
-7 -31 -164 0
1 32 39 0
-1 -32 -39 0
2 32 60 0
-2 -32 -60 0
3 32 81 0
-3 -32 -81 0
4 32 102 0
-4 -32 -102 0
5 32 123 0
-5 -32 -123 0
6 32 144 0
-6 -32 -144 0
7 32 165 0
-7 -32 -165 0
1 33 40 0
-1 -33 -40 0
2 33 61 0
-2 -33 -61 0
3 33 82 0
-3 -33 -82 0
4 33 103 0
-4 -33 -103 0
5 33 124 0
-5 -33 -124 0
6 33 145 0
-6 -33 -145 0
7 33 166 0
-7 -33 -166 0
1 34 41 0
-1 -34 -41 0
2 34 62 0
-2 -34 -62 0
3 34 83 0
-3 -34 -83 0
4 34 104 0
-4 -34 -104 0
5 34 125 0
-5 -34 -125 0
6 34 146 0
-6 -34 -146 0
7 34 167 0
-7 -34 -167 0
1 35 42 0
-1 -35 -42 0
2 35 63 0
-2 -35 -63 0
3 35 84 0
-3 -35 -84 0
4 35 105 0
-4 -35 -105 0
5 35 126 0
-5 -35 -126 0
6 35 147 0
-6 -35 -147 0
7 35 168 0
-7 -35 -168 0
1 36 43 0
-1 -36 -43 0
2 36 64 0
-2 -36 -64 0
3 36 85 0
-3 -36 -85 0
4 36 106 0
-4 -36 -106 0
5 36 127 0
-5 -36 -127 0
6 36 148 0
-6 -36 -148 0
7 36 169 0
-7 -36 -169 0
1 37 44 0
-1 -37 -44 0
2 37 65 0
-2 -37 -65 0
3 37 86 0
-3 -37 -86 0
4 37 107 0
-4 -37 -107 0
5 37 128 0
-5 -37 -128 0
6 37 149 0
-6 -37 -149 0
7 37 170 0
-7 -37 -170 0
1 38 45 0
-1 -38 -45 0
2 38 66 0
-2 -38 -66 0
3 38 87 0
-3 -38 -87 0
4 38 108 0
-4 -38 -108 0
5 38 129 0
-5 -38 -129 0
6 38 150 0
-6 -38 -150 0
7 38 171 0
-7 -38 -171 0
1 39 46 0
-1 -39 -46 0
2 39 67 0
-2 -39 -67 0
3 39 88 0
-3 -39 -88 0
4 39 109 0
-4 -39 -109 0
5 39 130 0
-5 -39 -130 0
6 39 151 0
-6 -39 -151 0
7 39 172 0
-7 -39 -172 0
1 40 47 0
-1 -40 -47 0
2 40 68 0
-2 -40 -68 0
3 40 89 0
-3 -40 -89 0
4 40 110 0
-4 -40 -110 0
5 40 131 0
-5 -40 -131 0
6 40 152 0
-6 -40 -152 0
7 40 173 0
-7 -40 -173 0
1 41 48 0
-1 -41 -48 0
2 41 69 0
-2 -41 -69 0
3 41 90 0
-3 -41 -90 0
4 41 111 0
-4 -41 -111 0
5 41 132 0
-5 -41 -132 0
6 41 153 0
-6 -41 -153 0
7 41 174 0
-7 -41 -174 0
1 42 49 0
-1 -42 -49 0
2 42 70 0
-2 -42 -70 0
3 42 91 0
-3 -42 -91 0
4 42 112 0
-4 -42 -112 0
5 42 133 0
-5 -42 -133 0
6 42 154 0
-6 -42 -154 0
7 42 175 0
-7 -42 -175 0
1 43 50 0
-1 -43 -50 0
2 43 71 0
-2 -43 -71 0
3 43 92 0
-3 -43 -92 0
4 43 113 0
-4 -43 -113 0
5 43 134 0
-5 -43 -134 0
6 43 155 0
-6 -43 -155 0
7 43 176 0
-7 -43 -176 0
1 44 51 0
-1 -44 -51 0
2 44 72 0
-2 -44 -72 0
3 44 93 0
-3 -44 -93 0
4 44 114 0
-4 -44 -114 0
5 44 135 0
-5 -44 -135 0
6 44 156 0
-6 -44 -156 0
7 44 177 0
-7 -44 -177 0
1 45 52 0
-1 -45 -52 0
2 45 73 0
-2 -45 -73 0
3 45 94 0
-3 -45 -94 0
4 45 115 0
-4 -45 -115 0
5 45 136 0
-5 -45 -136 0
6 45 157 0
-6 -45 -157 0
7 45 178 0
-7 -45 -178 0
1 46 53 0
-1 -46 -53 0
2 46 74 0
-2 -46 -74 0
3 46 95 0
-3 -46 -95 0
4 46 116 0
-4 -46 -116 0
5 46 137 0
-5 -46 -137 0
6 46 158 0
-6 -46 -158 0
7 46 179 0
-7 -46 -179 0
1 47 54 0
-1 -47 -54 0
2 47 75 0
-2 -47 -75 0
3 47 96 0
-3 -47 -96 0
4 47 117 0
-4 -47 -117 0
5 47 138 0
-5 -47 -138 0
6 47 159 0
-6 -47 -159 0
7 47 180 0
-7 -47 -180 0
1 48 55 0
-1 -48 -55 0
2 48 76 0
-2 -48 -76 0
3 48 97 0
-3 -48 -97 0
4 48 118 0
-4 -48 -118 0
5 48 139 0
-5 -48 -139 0
6 48 160 0
-6 -48 -160 0
7 48 181 0
-7 -48 -181 0
1 49 56 0
-1 -49 -56 0
2 49 77 0
-2 -49 -77 0
3 49 98 0
-3 -49 -98 0
4 49 119 0
-4 -49 -119 0
5 49 140 0
-5 -49 -140 0
6 49 161 0
-6 -49 -161 0
7 49 182 0
-7 -49 -182 0
1 50 57 0
-1 -50 -57 0
2 50 78 0
-2 -50 -78 0
3 50 99 0
-3 -50 -99 0
4 50 120 0
-4 -50 -120 0
5 50 141 0
-5 -50 -141 0
6 50 162 0
-6 -50 -162 0
7 50 183 0
-7 -50 -183 0
1 51 58 0
-1 -51 -58 0
2 51 79 0
-2 -51 -79 0
3 51 100 0
-3 -51 -100 0
4 51 121 0
-4 -51 -121 0
5 51 142 0
-5 -51 -142 0
6 51 163 0
-6 -51 -163 0
1 52 59 0
-1 -52 -59 0
2 52 80 0
-2 -52 -80 0
3 52 101 0
-3 -52 -101 0
4 52 122 0
-4 -52 -122 0
5 52 143 0
-5 -52 -143 0
6 52 164 0
-6 -52 -164 0
1 53 60 0
-1 -53 -60 0
2 53 81 0
-2 -53 -81 0
3 53 102 0
-3 -53 -102 0
4 53 123 0
-4 -53 -123 0
5 53 144 0
-5 -53 -144 0
6 53 165 0
-6 -53 -165 0
1 54 61 0
-1 -54 -61 0
2 54 82 0
-2 -54 -82 0
3 54 103 0
-3 -54 -103 0
4 54 124 0
-4 -54 -124 0
5 54 145 0
-5 -54 -145 0
6 54 166 0
-6 -54 -166 0
1 55 62 0
-1 -55 -62 0
2 55 83 0
-2 -55 -83 0
3 55 104 0
-3 -55 -104 0
4 55 125 0
-4 -55 -125 0
5 55 146 0
-5 -55 -146 0
6 55 167 0
-6 -55 -167 0
1 56 63 0
-1 -56 -63 0
2 56 84 0
-2 -56 -84 0
3 56 105 0
-3 -56 -105 0
4 56 126 0
-4 -56 -126 0
5 56 147 0
-5 -56 -147 0
6 56 168 0
-6 -56 -168 0
1 57 64 0
-1 -57 -64 0
2 57 85 0
-2 -57 -85 0
3 57 106 0
-3 -57 -106 0
4 57 127 0
-4 -57 -127 0
5 57 148 0
-5 -57 -148 0
6 57 169 0
-6 -57 -169 0
1 58 65 0
-1 -58 -65 0
2 58 86 0
-2 -58 -86 0
3 58 107 0
-3 -58 -107 0
4 58 128 0
-4 -58 -128 0
5 58 149 0
-5 -58 -149 0
6 58 170 0
-6 -58 -170 0
1 59 66 0
-1 -59 -66 0
2 59 87 0
-2 -59 -87 0
3 59 108 0
-3 -59 -108 0
4 59 129 0
-4 -59 -129 0
5 59 150 0
-5 -59 -150 0
6 59 171 0
-6 -59 -171 0
1 60 67 0
-1 -60 -67 0
2 60 88 0
-2 -60 -88 0
3 60 109 0
-3 -60 -109 0
4 60 130 0
-4 -60 -130 0
5 60 151 0
-5 -60 -151 0
6 60 172 0
-6 -60 -172 0
1 61 68 0
-1 -61 -68 0
2 61 89 0
-2 -61 -89 0
3 61 110 0
-3 -61 -110 0
4 61 131 0
-4 -61 -131 0
5 61 152 0
-5 -61 -152 0
6 61 173 0
-6 -61 -173 0
1 62 69 0
-1 -62 -69 0
2 62 90 0
-2 -62 -90 0
3 62 111 0
-3 -62 -111 0
4 62 132 0
-4 -62 -132 0
5 62 153 0
-5 -62 -153 0
6 62 174 0
-6 -62 -174 0
1 63 70 0
-1 -63 -70 0
2 63 91 0
-2 -63 -91 0
3 63 112 0
-3 -63 -112 0
4 63 133 0
-4 -63 -133 0
5 63 154 0
-5 -63 -154 0
6 63 175 0
-6 -63 -175 0
1 64 71 0
-1 -64 -71 0
2 64 92 0
-2 -64 -92 0
3 64 113 0
-3 -64 -113 0
4 64 134 0
-4 -64 -134 0
5 64 155 0
-5 -64 -155 0
6 64 176 0
-6 -64 -176 0
1 65 72 0
-1 -65 -72 0
2 65 93 0
-2 -65 -93 0
3 65 114 0
-3 -65 -114 0
4 65 135 0
-4 -65 -135 0
5 65 156 0
-5 -65 -156 0
6 65 177 0
-6 -65 -177 0
1 66 73 0
-1 -66 -73 0
2 66 94 0
-2 -66 -94 0
3 66 115 0
-3 -66 -115 0
4 66 136 0
-4 -66 -136 0
5 66 157 0
-5 -66 -157 0
6 66 178 0
-6 -66 -178 0
1 67 74 0
-1 -67 -74 0
2 67 95 0
-2 -67 -95 0
3 67 116 0
-3 -67 -116 0
4 67 137 0
-4 -67 -137 0
5 67 158 0
-5 -67 -158 0
6 67 179 0
-6 -67 -179 0
1 68 75 0
-1 -68 -75 0
2 68 96 0
-2 -68 -96 0
3 68 117 0
-3 -68 -117 0
4 68 138 0
-4 -68 -138 0
5 68 159 0
-5 -68 -159 0
6 68 180 0
-6 -68 -180 0
1 69 76 0
-1 -69 -76 0
2 69 97 0
-2 -69 -97 0
3 69 118 0
-3 -69 -118 0
4 69 139 0
-4 -69 -139 0
5 69 160 0
-5 -69 -160 0
6 69 181 0
-6 -69 -181 0
1 70 77 0
-1 -70 -77 0
2 70 98 0
-2 -70 -98 0
3 70 119 0
-3 -70 -119 0
4 70 140 0
-4 -70 -140 0
5 70 161 0
-5 -70 -161 0
6 70 182 0
-6 -70 -182 0
1 71 78 0
-1 -71 -78 0
2 71 99 0
-2 -71 -99 0
3 71 120 0
-3 -71 -120 0
4 71 141 0
-4 -71 -141 0
5 71 162 0
-5 -71 -162 0
6 71 183 0
-6 -71 -183 0
1 72 79 0
-1 -72 -79 0
2 72 100 0
-2 -72 -100 0
3 72 121 0
-3 -72 -121 0
4 72 142 0
-4 -72 -142 0
5 72 163 0
-5 -72 -163 0
1 73 80 0
-1 -73 -80 0
2 73 101 0
-2 -73 -101 0
3 73 122 0
-3 -73 -122 0
4 73 143 0
-4 -73 -143 0
5 73 164 0
-5 -73 -164 0
1 74 81 0
-1 -74 -81 0
2 74 102 0
-2 -74 -102 0
3 74 123 0
-3 -74 -123 0
4 74 144 0
-4 -74 -144 0
5 74 165 0
-5 -74 -165 0
1 75 82 0
-1 -75 -82 0
2 75 103 0
-2 -75 -103 0
3 75 124 0
-3 -75 -124 0
4 75 145 0
-4 -75 -145 0
5 75 166 0
-5 -75 -166 0
1 76 83 0
-1 -76 -83 0
2 76 104 0
-2 -76 -104 0
3 76 125 0
-3 -76 -125 0
4 76 146 0
-4 -76 -146 0
5 76 167 0
-5 -76 -167 0
1 77 84 0
-1 -77 -84 0
2 77 105 0
-2 -77 -105 0
3 77 126 0
-3 -77 -126 0
4 77 147 0
-4 -77 -147 0
5 77 168 0
-5 -77 -168 0
1 78 85 0
-1 -78 -85 0
2 78 106 0
-2 -78 -106 0
3 78 127 0
-3 -78 -127 0
4 78 148 0
-4 -78 -148 0
5 78 169 0
-5 -78 -169 0
1 79 86 0
-1 -79 -86 0
2 79 107 0
-2 -79 -107 0
3 79 128 0
-3 -79 -128 0
4 79 149 0
-4 -79 -149 0
5 79 170 0
-5 -79 -170 0
1 80 87 0
-1 -80 -87 0
2 80 108 0
-2 -80 -108 0
3 80 129 0
-3 -80 -129 0
4 80 150 0
-4 -80 -150 0
5 80 171 0
-5 -80 -171 0
1 81 88 0
-1 -81 -88 0
2 81 109 0
-2 -81 -109 0
3 81 130 0
-3 -81 -130 0
4 81 151 0
-4 -81 -151 0
5 81 172 0
-5 -81 -172 0
1 82 89 0
-1 -82 -89 0
2 82 110 0
-2 -82 -110 0
3 82 131 0
-3 -82 -131 0
4 82 152 0
-4 -82 -152 0
5 82 173 0
-5 -82 -173 0
1 83 90 0
-1 -83 -90 0
2 83 111 0
-2 -83 -111 0
3 83 132 0
-3 -83 -132 0
4 83 153 0
-4 -83 -153 0
5 83 174 0
-5 -83 -174 0
1 84 91 0
-1 -84 -91 0
2 84 112 0
-2 -84 -112 0
3 84 133 0
-3 -84 -133 0
4 84 154 0
-4 -84 -154 0
5 84 175 0
-5 -84 -175 0
1 85 92 0
-1 -85 -92 0
2 85 113 0
-2 -85 -113 0
3 85 134 0
-3 -85 -134 0
4 85 155 0
-4 -85 -155 0
5 85 176 0
-5 -85 -176 0
1 86 93 0
-1 -86 -93 0
2 86 114 0
-2 -86 -114 0
3 86 135 0
-3 -86 -135 0
4 86 156 0
-4 -86 -156 0
5 86 177 0
-5 -86 -177 0
1 87 94 0
-1 -87 -94 0
2 87 115 0
-2 -87 -115 0
3 87 136 0
-3 -87 -136 0
4 87 157 0
-4 -87 -157 0
5 87 178 0
-5 -87 -178 0
1 88 95 0
-1 -88 -95 0
2 88 116 0
-2 -88 -116 0
3 88 137 0
-3 -88 -137 0
4 88 158 0
-4 -88 -158 0
5 88 179 0
-5 -88 -179 0
1 89 96 0
-1 -89 -96 0
2 89 117 0
-2 -89 -117 0
3 89 138 0
-3 -89 -138 0
4 89 159 0
-4 -89 -159 0
5 89 180 0
-5 -89 -180 0
1 90 97 0
-1 -90 -97 0
2 90 118 0
-2 -90 -118 0
3 90 139 0
-3 -90 -139 0
4 90 160 0
-4 -90 -160 0
5 90 181 0
-5 -90 -181 0
1 91 98 0
-1 -91 -98 0
2 91 119 0
-2 -91 -119 0
3 91 140 0
-3 -91 -140 0
4 91 161 0
-4 -91 -161 0
5 91 182 0
-5 -91 -182 0
1 92 99 0
-1 -92 -99 0
2 92 120 0
-2 -92 -120 0
3 92 141 0
-3 -92 -141 0
4 92 162 0
-4 -92 -162 0
5 92 183 0
-5 -92 -183 0
1 93 100 0
-1 -93 -100 0
2 93 121 0
-2 -93 -121 0
3 93 142 0
-3 -93 -142 0
4 93 163 0
-4 -93 -163 0
1 94 101 0
-1 -94 -101 0
2 94 122 0
-2 -94 -122 0
3 94 143 0
-3 -94 -143 0
4 94 164 0
-4 -94 -164 0
1 95 102 0
-1 -95 -102 0
2 95 123 0
-2 -95 -123 0
3 95 144 0
-3 -95 -144 0
4 95 165 0
-4 -95 -165 0
1 96 103 0
-1 -96 -103 0
2 96 124 0
-2 -96 -124 0
3 96 145 0
-3 -96 -145 0
4 96 166 0
-4 -96 -166 0
1 97 104 0
-1 -97 -104 0
2 97 125 0
-2 -97 -125 0
3 97 146 0
-3 -97 -146 0
4 97 167 0
-4 -97 -167 0
1 98 105 0
-1 -98 -105 0
2 98 126 0
-2 -98 -126 0
3 98 147 0
-3 -98 -147 0
4 98 168 0
-4 -98 -168 0
1 99 106 0
-1 -99 -106 0
2 99 127 0
-2 -99 -127 0
3 99 148 0
-3 -99 -148 0
4 99 169 0
-4 -99 -169 0
1 100 107 0
-1 -100 -107 0
2 100 128 0
-2 -100 -128 0
3 100 149 0
-3 -100 -149 0
4 100 170 0
-4 -100 -170 0
1 101 108 0
-1 -101 -108 0
2 101 129 0
-2 -101 -129 0
3 101 150 0
-3 -101 -150 0
4 101 171 0
-4 -101 -171 0
1 102 109 0
-1 -102 -109 0
2 102 130 0
-2 -102 -130 0
3 102 151 0
-3 -102 -151 0
4 102 172 0
-4 -102 -172 0
1 103 110 0
-1 -103 -110 0
2 103 131 0
-2 -103 -131 0
3 103 152 0
-3 -103 -152 0
4 103 173 0
-4 -103 -173 0
1 104 111 0
-1 -104 -111 0
2 104 132 0
-2 -104 -132 0
3 104 153 0
-3 -104 -153 0
4 104 174 0
-4 -104 -174 0
1 105 112 0
-1 -105 -112 0
2 105 133 0
-2 -105 -133 0
3 105 154 0
-3 -105 -154 0
4 105 175 0
-4 -105 -175 0
1 106 113 0
-1 -106 -113 0
2 106 134 0
-2 -106 -134 0
3 106 155 0
-3 -106 -155 0
4 106 176 0
-4 -106 -176 0
1 107 114 0
-1 -107 -114 0
2 107 135 0
-2 -107 -135 0
3 107 156 0
-3 -107 -156 0
4 107 177 0
-4 -107 -177 0
1 108 115 0
-1 -108 -115 0
2 108 136 0
-2 -108 -136 0
3 108 157 0
-3 -108 -157 0
4 108 178 0
-4 -108 -178 0
1 109 116 0
-1 -109 -116 0
2 109 137 0
-2 -109 -137 0
3 109 158 0
-3 -109 -158 0
4 109 179 0
-4 -109 -179 0
1 110 117 0
-1 -110 -117 0
2 110 138 0
-2 -110 -138 0
3 110 159 0
-3 -110 -159 0
4 110 180 0
-4 -110 -180 0
1 111 118 0
-1 -111 -118 0
2 111 139 0
-2 -111 -139 0
3 111 160 0
-3 -111 -160 0
4 111 181 0
-4 -111 -181 0
1 112 119 0
-1 -112 -119 0
2 112 140 0
-2 -112 -140 0
3 112 161 0
-3 -112 -161 0
4 112 182 0
-4 -112 -182 0
1 113 120 0
-1 -113 -120 0
2 113 141 0
-2 -113 -141 0
3 113 162 0
-3 -113 -162 0
4 113 183 0
-4 -113 -183 0
1 114 121 0
-1 -114 -121 0
2 114 142 0
-2 -114 -142 0
3 114 163 0
-3 -114 -163 0
1 115 122 0
-1 -115 -122 0
2 115 143 0
-2 -115 -143 0
3 115 164 0
-3 -115 -164 0
1 116 123 0
-1 -116 -123 0
2 116 144 0
-2 -116 -144 0
3 116 165 0
-3 -116 -165 0
1 117 124 0
-1 -117 -124 0
2 117 145 0
-2 -117 -145 0
3 117 166 0
-3 -117 -166 0
1 118 125 0
-1 -118 -125 0
2 118 146 0
-2 -118 -146 0
3 118 167 0
-3 -118 -167 0
1 119 126 0
-1 -119 -126 0
2 119 147 0
-2 -119 -147 0
3 119 168 0
-3 -119 -168 0
1 120 127 0
-1 -120 -127 0
2 120 148 0
-2 -120 -148 0
3 120 169 0
-3 -120 -169 0
1 121 128 0
-1 -121 -128 0
2 121 149 0
-2 -121 -149 0
3 121 170 0
-3 -121 -170 0
1 122 129 0
-1 -122 -129 0
2 122 150 0
-2 -122 -150 0
3 122 171 0
-3 -122 -171 0
1 123 130 0
-1 -123 -130 0
2 123 151 0
-2 -123 -151 0
3 123 172 0
-3 -123 -172 0
1 124 131 0
-1 -124 -131 0
2 124 152 0
-2 -124 -152 0
3 124 173 0
-3 -124 -173 0
1 125 132 0
-1 -125 -132 0
2 125 153 0
-2 -125 -153 0
3 125 174 0
-3 -125 -174 0
1 126 133 0
-1 -126 -133 0
2 126 154 0
-2 -126 -154 0
3 126 175 0
-3 -126 -175 0
1 127 134 0
-1 -127 -134 0
2 127 155 0
-2 -127 -155 0
3 127 176 0
-3 -127 -176 0
1 128 135 0
-1 -128 -135 0
2 128 156 0
-2 -128 -156 0
3 128 177 0
-3 -128 -177 0
1 129 136 0
-1 -129 -136 0
2 129 157 0
-2 -129 -157 0
3 129 178 0
-3 -129 -178 0
1 130 137 0
-1 -130 -137 0
2 130 158 0
-2 -130 -158 0
3 130 179 0
-3 -130 -179 0
1 131 138 0
-1 -131 -138 0
2 131 159 0
-2 -131 -159 0
3 131 180 0
-3 -131 -180 0
1 132 139 0
-1 -132 -139 0
2 132 160 0
-2 -132 -160 0
3 132 181 0
-3 -132 -181 0
1 133 140 0
-1 -133 -140 0
2 133 161 0
-2 -133 -161 0
3 133 182 0
-3 -133 -182 0
1 134 141 0
-1 -134 -141 0
2 134 162 0
-2 -134 -162 0
3 134 183 0
-3 -134 -183 0
1 135 142 0
-1 -135 -142 0
2 135 163 0
-2 -135 -163 0
1 136 143 0
-1 -136 -143 0
2 136 164 0
-2 -136 -164 0
1 137 144 0
-1 -137 -144 0
2 137 165 0
-2 -137 -165 0
1 138 145 0
-1 -138 -145 0
2 138 166 0
-2 -138 -166 0
1 139 146 0
-1 -139 -146 0
2 139 167 0
-2 -139 -167 0
1 140 147 0
-1 -140 -147 0
2 140 168 0
-2 -140 -168 0
1 141 148 0
-1 -141 -148 0
2 141 169 0
-2 -141 -169 0
1 142 149 0
-1 -142 -149 0
2 142 170 0
-2 -142 -170 0
1 143 150 0
-1 -143 -150 0
2 143 171 0
-2 -143 -171 0
1 144 151 0
-1 -144 -151 0
2 144 172 0
-2 -144 -172 0
1 145 152 0
-1 -145 -152 0
2 145 173 0
-2 -145 -173 0
1 146 153 0
-1 -146 -153 0
2 146 174 0
-2 -146 -174 0
1 147 154 0
-1 -147 -154 0
2 147 175 0
-2 -147 -175 0
1 148 155 0
-1 -148 -155 0
2 148 176 0
-2 -148 -176 0
1 149 156 0
-1 -149 -156 0
2 149 177 0
-2 -149 -177 0
1 150 157 0
-1 -150 -157 0
2 150 178 0
-2 -150 -178 0
1 151 158 0
-1 -151 -158 0
2 151 179 0
-2 -151 -179 0
1 152 159 0
-1 -152 -159 0
2 152 180 0
-2 -152 -180 0
1 153 160 0
-1 -153 -160 0
2 153 181 0
-2 -153 -181 0
1 154 161 0
-1 -154 -161 0
2 154 182 0
-2 -154 -182 0
1 155 162 0
-1 -155 -162 0
2 155 183 0
-2 -155 -183 0
1 156 163 0
-1 -156 -163 0
1 157 164 0
-1 -157 -164 0
1 158 165 0
-1 -158 -165 0
1 159 166 0
-1 -159 -166 0
1 160 167 0
-1 -160 -167 0
1 161 168 0
-1 -161 -168 0
1 162 169 0
-1 -162 -169 0
1 163 170 0
-1 -163 -170 0
1 164 171 0
-1 -164 -171 0
1 165 172 0
-1 -165 -172 0
1 166 173 0
-1 -166 -173 0
1 167 174 0
-1 -167 -174 0
1 168 175 0
-1 -168 -175 0
1 169 176 0
-1 -169 -176 0
1 170 177 0
-1 -170 -177 0
1 171 178 0
-1 -171 -178 0
1 172 179 0
-1 -172 -179 0
1 173 180 0
-1 -173 -180 0
1 174 181 0
-1 -174 -181 0
1 175 182 0
-1 -175 -182 0
1 176 183 0
-1 -176 -183 0
