certificates/rado_a21_c14_N183.drat
-176 -183 0
d -176 -1 -183 0
22 29 176 0
-8 -183 0
-183 0
176 0
8 0
-1 0
-162 0
-22 0
169 0
155 0
29 0
15 0
0
